38
120
84	2
82	1
80	1
77	1
76	2
74	1
72	1
70	2
69	2
68	1
66	1
64	2
63	1
62	1
61	1
60	2
53	1
51	1
50	3
48	1
47	1
46	1
41	1
37	1
36	3
35	1
33	1
31	2
28	1
27	1
25	1
24	1
21	1
19	1
18	1
17	1
16	1
13	2
